p cnf 143 412
-36 37 0 
-102 101 0 
-67 68 0 
-16 15 0 
-12 13 0 
-130 -113 0 
-136 -119 0 
-110 86 87 0 
-101 102 0 
-32 132 0 
-139 -122 0 
-125 124 141 0 
-105 -90 -89 0 
-74 75 105 0 
-129 -112 0 
-70 71 109 0 
-134 117 118 0 
-49 50 111 0 
-110 -31 -30 0 
-48 49 0 
-105 -75 -74 0 
-28 27 0 
-79 80 0 
-59 58 0 
-4 3 0 
-85 86 109 0 
-82 83 0 
-56 55 108 0 
-108 -41 -40 0 
-58 59 0 
-50 49 111 0 
-108 -100 -99 0 
-110 -24 -23 0 
-24 25 111 0 
-60 61 0 
-10 9 105 0 
-95 94 0 
-40 39 0 
-107 -46 -45 0 
-104 -89 0 
-94 95 0 
-139 73 0 
-86 87 110 0 
-39 40 0 
-111 -96 -95 0 
26 105 0 
-107 -12 -11 0 
-107 20 21 0 
-105 67 0 
-109 85 86 0 
-108 92 93 0 
-52 51 0 
-17 18 0 
-83 82 0 
-128 8 0 
-119 120 136 0 
-140 123 124 0 
-41 40 108 0 
-110 -58 -57 0 
-51 52 0 
-109 100 101 0 
-143 103 0 
-138 66 0 
-116 117 133 0 
-134 44 0 
-109 41 42 0 
-123 122 139 0 
-6 5 109 0 
-120 119 136 0 
-99 98 107 0 
-135 50 0 
-142 -125 0 
-87 88 0 
-119 118 135 0 
-129 16 0 
-108 -93 -92 0 
-45 46 107 0 
-110 42 43 0 
-87 86 110 0 
-113 114 130 0 
-106 -33 0 
-139 122 123 0 
-107 -99 -98 0 
-76 77 107 0 
-76 75 0 
-91 90 106 0 
-116 115 132 0 
-75 76 0 
-138 121 122 0 
-110 -43 -42 0 
-90 89 105 0 
-122 123 0 
-48 47 0 
-108 99 100 0 
-57 56 0 
-22 23 0 
-88 87 0 
-110 23 24 0 
-35 36 109 0 
-44 134 0 
-108 40 41 0 
-31 30 110 0 
-56 57 0 
-1 2 105 0 
-114 115 131 0 
-123 124 0 
-131 -114 0 
-108 46 47 0 
-34 35 0 
-107 -84 -83 0 
-14 13 0 
-30 29 109 0 
-103 102 0 
-129 -113 -112 0 
-136 -120 -119 0 
-13 14 0 
-108 21 22 0 
-135 118 119 0 
-12 11 107 0 
-107 -77 -76 0 
-109 29 30 0 
-25 131 0 
-81 80 0 
-122 123 139 0 
-109 -30 -29 0 
-51 108 0 
-109 -71 -70 0 
-80 81 0 
-101 100 109 0 
-111 -8 -7 0 
-111 24 25 0 
-50 135 0 
-131 25 0 
-53 52 0 
-93 92 108 0 
-123 124 140 0 
-43 42 110 0 
-7 6 0 
-38 37 0 
-109 -64 -63 0 
-129 112 113 0 
-127 126 143 0 
33 106 0 
-61 62 0 
-105 -26 0 
-6 7 0 
-37 38 0 
-136 54 0 
-132 32 0 
89 104 0 
-112 113 0 
-65 64 0 
-24 23 110 0 
-120 121 0 
-111 65 66 0 
-42 41 109 0 
-108 28 29 0 
-131 -115 -114 0 
-72 73 111 0 
-62 61 0 
-138 -121 0 
-74 104 0 
-142 96 0 
-84 83 107 0 
-86 85 109 0 
-34 33 0 
-82 105 0 
-98 97 0 
-117 116 133 0 
-141 88 0 
-126 127 0 
-111 -54 -53 0 
-133 38 0 
-73 139 0 
-109 35 36 0 
-97 98 0 
-134 -118 -117 0 
-120 121 137 0 
-8 7 111 0 
-130 113 114 0 
-143 -126 0 
-137 59 0 
-99 100 108 0 
-15 14 0 
-124 125 0 
-111 72 73 0 
-9 10 105 0 
-78 79 0 
-53 54 111 0 
-118 119 0 
-140 -124 -123 0 
-110 -17 0 
-28 29 108 0 
-111 -73 -72 0 
-27 26 0 
-133 -116 0 
-113 112 129 0 
-60 105 0 
-143 -127 -126 0 
-65 66 111 0 
-54 136 0 
-29 28 108 0 
-105 -2 -1 0 
-10 11 106 0 
-70 69 0 
-111 53 54 0 
-135 -118 0 
-126 127 143 0 
-106 -91 -90 0 
-58 57 110 0 
39 106 0 
-79 78 0 
-106 2 3 0 
-100 99 108 0 
-102 103 0 
-137 -121 -120 0 
-47 48 0 
-121 122 0 
-96 95 111 0 
-20 19 0 
-46 47 108 0 
-118 119 135 0 
-124 123 140 0 
-141 -125 -124 0 
-2 3 106 0 
-108 55 56 0 
-110 57 58 0 
-115 116 0 
-5 4 0 
-63 64 109 0 
-107 76 77 0 
-16 129 0 
-94 93 0 
-132 -115 0 
-4 5 0 
-19 105 0 
-40 41 108 0 
-107 68 69 0 
-111 -66 -65 0 
-11 12 107 0 
-108 51 0 
-55 56 108 0 
-77 76 107 0 
-109 -36 -35 0 
-108 -29 -28 0 
-72 71 0 
-107 83 84 0 
-59 137 0 
-69 68 107 0 
-105 -97 0 
-71 72 0 
-110 -87 -86 0 
-22 21 108 0 
-106 -39 0 
-121 122 138 0 
-109 63 64 0 
-132 115 116 0 
-112 128 0 
-105 60 0 
-141 124 125 0 
-137 120 121 0 
-111 7 8 0 
-21 20 107 0 
-52 53 0 
-110 30 31 0 
-32 31 0 
-63 62 0 
-107 -69 -68 0 
-115 116 132 0 
-115 114 131 0 
-66 65 111 0 
-109 70 71 0 
-105 19 0 
-106 -11 -10 0 
-140 -123 0 
-5 6 109 0 
-108 -56 -55 0 
-64 65 0 
-44 43 0 
-98 99 107 0 
-121 120 137 0 
-122 121 138 0 
-139 -123 -122 0 
-57 58 110 0 
-105 1 2 0 
-106 -3 -2 0 
-18 130 0 
-119 120 0 
-88 141 0 
-140 81 0 
-23 24 110 0 
-95 96 111 0 
-142 125 126 0 
-116 117 0 
45 106 0 
-128 112 0 
-106 -45 0 
-107 -21 -20 0 
-112 113 129 0 
-68 67 0 
-33 34 0 
-13 12 0 
-71 70 109 0 
-104 1 0 
-105 9 10 0 
-109 -42 -41 0 
-105 74 75 0 
-107 45 46 0 
-109 -101 -100 0 
-69 70 0 
-49 48 0 
-14 15 0 
-80 79 0 
-132 -116 -115 0 
-113 114 0 
-7 8 111 0 
-38 133 0 
-73 72 111 0 
-131 114 115 0 
-107 11 12 0 
-105 -10 -9 0 
-138 -122 -121 0 
-41 42 109 0 
-61 60 0 
-26 27 0 
-92 91 0 
-37 36 0 
-133 116 117 0 
-46 45 107 0 
-126 125 142 0 
-100 101 109 0 
-104 -9 0 
17 110 0 
-111 95 96 0 
-106 10 11 0 
-141 -124 0 
-81 140 0 
-20 21 107 0 
-125 126 0 
-130 -114 -113 0 
-114 115 0 
-36 35 109 0 
-133 -117 -116 0 
-93 94 0 
-103 143 0 
-18 17 0 
-142 -126 -125 0 
-64 63 109 0 
-124 125 141 0 
-89 90 105 0 
-75 74 105 0 
-3 2 106 0 
-29 30 109 0 
-143 126 127 0 
-137 -120 0 
-55 107 0 
-19 20 0 
-85 84 0 
-90 91 106 0 
-84 85 0 
-117 118 0 
-25 24 111 0 
97 105 0 
-11 10 106 0 
-54 53 111 0 
-109 5 6 0 
-105 89 90 0 
-107 55 0 
-109 -86 -85 0 
-31 32 0 
-62 63 0 
-125 126 142 0 
-1 104 0 
-68 69 107 0 
-8 128 0 
-3 4 0 
-114 113 130 0 
-66 138 0 
-30 31 110 0 
-67 105 0 
-96 142 0 
-78 77 0 
-43 44 0 
-23 22 0 
-111 -25 -24 0 
-2 1 105 0 
-47 46 108 0 
-135 -119 -118 0 
-77 78 0 
-92 93 108 0 
-42 43 110 0 
-15 16 0 
-111 -50 -49 0 
-117 118 134 0 
-35 34 0 
-107 98 99 0 
-136 119 120 0 
-108 -47 -46 0 
-106 90 91 0 
-109 -6 -5 0 
9 104 0 
-105 82 0 
-130 18 0 
-134 -117 0 
-21 22 108 0 
-118 117 134 0 
-104 74 0 
-27 28 0 
-83 84 107 0 
-108 -22 -21 0 
-91 92 0 
-111 49 50 0 
